
[RewardItem]	RewardItemIdx	Class	Order	ItemKind	ItemOpt	Duration
0	1	0	0	3	20	0
1	2	0	0	6	20	0
2	3	0	0	12	10	0
3	4	0	0	6	2	0
4	5	0	0	33339	1203	0
5	6	0	0	33359	1199	0
6	7	0	0	33356	1206	0
7	8	0	0	33218	1207	0
8	9	0	0	33254	1208	0
9	10	0	0	33270	1214	0
10	11	0	0	33362	1202	0
11	12	0	0	33214	1216	0
12	13	0	0	33214	1218	0
13	14	0	0	33214	1219	0
14	15	0	0	33209	1277	0
15	16	0	0	578	1108	0
16	17	0	0	33908	1293	0
17	18	0	0	33909	1294	0
18	19	0	0	1217	1314	0
19	20	0	0	33363	1315	0
20	21	0	0	33262	1316	0
21	22	0	0	496	1231	0
22	23	0	0	601	1215	0
23	24	0	0	663	1292	0
24	25	0	0	1185	1313	0
25	26	0	0	939	2	0
26	27	0	0	1271	25	0
27	28	0	0	1272	25	0
28	29	0	0	783	0	0
29	30	0	0	34247	1335	0
30	31	0	0	34240	1337	0
31	32	0	0	33952	1338	0
32	33	0	0	34242	1340	0
33	34	0	0	34243	1341	0
34	35	0	0	34240	1342	0
35	36	0	0	34236	1330	0
36	37	0	0	1467	1322	0
37	38	0	0	34324	1333	0
38	39	0	0	1215	0	0
39	40	0	0	34325	1344	0
40	41	0	0	34322	1345	0
41	42	0	0	1538	1346	0
42	43	0	0	1660	1347	0
43	44	0	0	34429	1348	0
44	45	0	0	34430	1349	0
45	46	0	0	34431	1350	0
46	47	0	0	1787	1357	0
47	48	0	0	1733	1356	0
48	49	0	0	1688	1	0
49	50	1	0	8343	268435479	0
50	50	2	0	8373	268435479	0
51	50	3	0	8373	268435479	0
52	50	4	0	8358	268435479	0
53	50	5	0	8343	268435479	0
54	50	6	0	8358	268435479	0
55	50	7	0	8343	268435479	0
56	50	8	0	8358	268435479	0
57	50	9	0	8373	268435479	0
58	51	1	0	577615	536878261	0
59	51	1	1	577630	536878261	0
60	51	2	0	577585	536878261	0
61	51	2	1	577600	536878261	0
62	51	3	0	577555	536878261	0
63	51	4	0	577570	536878261	0
64	51	5	0	577600	536878261	0
65	51	5	1	577570	536878261	0
66	51	6	0	577585	536878261	0
67	51	6	1	577555	536878261	0
68	51	7	0	34132314	536878261	0
69	51	8	0	577555	536878261	0
70	51	8	1	577570	536878261	0
71	51	9	0	577555	536878261	0
72	52	1	0	577781	536876980	0
73	52	2	0	577811	536876980	0
74	52	3	0	577811	536876980	0
75	52	4	0	577796	536876980	0
76	52	5	0	577781	536876980	0
77	52	6	0	577796	536876980	0
78	52	7	0	577781	536876980	0
79	52	8	0	577796	536876980	0
80	52	9	0	577811	536876980	0
81	53	0	0	2148	1363	0
82	54	0	0	2149	1364	0
83	55	0	0	2150	1365	0
84	56	0	0	2181	1366	0
85	57	0	0	526491	9540248	0
86	58	0	0	2202	1368	0
87	59	0	0	2254	1372	0
88	60	0	0	2255	1373	0
89	61	0	0	524726	1374	0
90	62	0	0	524726	1375	0
91	63	0	0	524726	1376	0
92	64	1	0	1849	0	31
93	64	2	0	1850	0	31
94	64	3	0	1932	0	31
95	64	4	0	2108	0	31
96	64	5	0	1851	0	31
97	64	6	0	1851	0	31
98	64	7	0	33554750	0	31
99	64	8	0	33555879	0	31
100	64	9	0	33557191	0	31
101	69	0	0	2028	0	31
102	70	0	0	524297	0	0
103	71	0	0	525755	1322	9
104	71	0	1	525826	1346	9
105	71	0	2	525948	1347	9
106	71	0	3	526075	1357	9
107	71	0	4	526490	1368	9
108	71	0	5	526543	1373	9
109	72	0	0	526610	0	0
110	73	0	0	2323	1400	0
111	73	0	1	2324	1401	0
112	73	0	2	2325	1402	0
113	73	0	3	2326	1403	0
114	73	0	4	2327	1404	0
115	73	0	5	2328	1405	0
116	74	0	0	524726	1418	0
117	75	0	0	526436	1363	9
118	76	0	0	526437	1364	9
119	77	0	0	2565	1422	0
120	78	0	0	526856	13750936	0
121	79	0	0	34079857	0	0
122	80	0	0	526765	0	0
123	81	0	0	526766	0	0
124	82	0	0	526767	0	0
125	83	0	0	34079858	0	0
126	84	0	0	526769	0	0
127	85	0	0	526770	0	0
128	86	0	0	526771	0	0
129	87	0	0	34079859	0	0
130	88	0	0	526773	0	0
131	89	0	0	526774	0	0
132	90	0	0	526775	0	0
133	91	0	0	34079860	0	0
134	92	0	0	526777	0	0
135	93	0	0	526778	0	0
136	94	0	0	526779	0	0
137	95	0	0	34079861	0	0
138	96	0	0	526781	0	0
139	97	0	0	526782	0	0
140	98	0	0	526783	0	0
141	99	0	0	34079862	0	0
142	100	0	0	526785	0	0
143	101	0	0	526786	0	0
144	102	0	0	526787	0	0
145	103	0	0	2850	1428	0
146	104	0	0	525045	5	0
147	105	0	0	526276	0	31
148	106	0	0	526255	0	31
149	107	0	0	526254	0	31
150	108	0	0	526317	0	31
151	109	1	0	526206	0	31
152	109	1	1	526156	0	31
153	109	1	2	526248	0	31
154	109	2	0	526206	0	31
155	109	2	1	526156	0	31
156	109	2	2	526248	0	31
157	109	3	0	526206	0	31
158	109	3	1	526224	0	31
159	109	3	2	526225	0	31
160	109	3	3	526277	0	31
161	109	3	4	526156	0	31
162	109	4	0	526236	0	31
163	109	4	1	526409	0	31
164	109	4	2	526156	0	31
165	109	5	0	526206	0	31
166	109	5	1	526244	0	31
167	109	5	2	526156	0	31
168	109	6	0	526206	0	31
169	109	6	1	526305	0	31
170	109	6	2	526156	0	31
171	109	7	0	34079041	0	31
172	109	7	1	34079042	0	31
173	109	8	0	34080196	0	31
174	109	8	1	34080180	0	31
175	109	8	2	526156	0	31
176	109	9	0	34081486	0	31
177	109	9	1	34081487	0	31
178	109	9	2	34081488	0	31
179	110	1	0	526344	0	31
180	110	1	1	526336	0	31
181	110	2	0	526344	0	31
182	110	2	1	526336	0	31
183	110	3	0	526344	0	31
184	110	3	1	526352	0	31
185	110	4	0	526344	0	31
186	110	4	1	526352	0	31
187	110	5	0	526344	0	31
188	110	5	1	526336	0	31
189	110	6	0	526344	0	31
190	110	6	1	526336	0	31
191	110	7	0	526344	0	31
192	110	7	1	526336	0	31
193	110	8	0	526344	0	31
194	110	8	1	526352	0	31
195	110	9	0	526344	0	31
196	110	9	1	526352	0	31
197	111	1	0	526213	0	31
198	111	1	1	526250	0	31
199	111	1	2	526164	0	31
200	111	2	0	526213	0	31
201	111	2	1	526250	0	31
202	111	2	2	526165	0	31
203	111	3	0	526213	0	31
204	111	3	1	526226	0	31
205	111	3	2	526227	0	31
206	111	4	0	526287	0	31
207	111	4	1	526237	0	31
208	111	4	2	526416	0	31
209	111	5	0	526213	0	31
210	111	5	1	526295	0	31
211	111	5	2	526166	0	31
212	111	6	0	526213	0	31
213	111	6	1	526287	0	31
214	111	6	2	526167	0	31
215	111	7	0	34079043	0	31
216	111	7	1	34079044	0	31
217	111	7	2	34079045	0	31
218	111	8	0	34080221	0	31
219	111	8	1	34080202	0	31
220	111	8	2	34080187	0	31
221	111	9	0	34081490	0	31
222	111	9	1	34081491	0	31
223	111	9	2	34081492	0	31
224	112	1	0	526345	0	31
225	112	1	1	526337	0	31
226	112	1	2	526319	0	31
227	112	2	0	526345	0	31
228	112	2	1	526337	0	31
229	112	2	2	526319	0	31
230	112	3	0	526345	0	31
231	112	3	1	526353	0	31
232	112	3	2	526319	0	31
233	112	4	0	526345	0	31
234	112	4	1	526353	0	31
235	112	4	2	526319	0	31
236	112	5	0	526345	0	31
237	112	5	1	526337	0	31
238	112	5	2	526319	0	31
239	112	6	0	526345	0	31
240	112	6	1	526337	0	31
241	112	6	2	526319	0	31
242	112	7	0	526345	0	31
243	112	7	1	526337	0	31
244	112	7	2	526319	0	31
245	112	8	0	526345	0	31
246	112	8	1	526353	0	31
247	112	8	2	526319	0	31
248	112	9	0	526345	0	31
249	112	9	1	526353	0	31
250	112	9	2	526319	0	31
251	113	1	0	526346	0	31
252	113	1	1	526338	0	31
253	113	1	2	526320	0	31
254	113	2	0	526346	0	31
255	113	2	1	526338	0	31
256	113	2	2	526320	0	31
257	113	3	0	526346	0	31
258	113	3	1	526354	0	31
259	113	3	2	526320	0	31
260	113	4	0	526346	0	31
261	113	4	1	526354	0	31
262	113	4	2	526320	0	31
263	113	5	0	526346	0	31
264	113	5	1	526338	0	31
265	113	5	2	526320	0	31
266	113	6	0	526346	0	31
267	113	6	1	526338	0	31
268	113	6	2	526320	0	31
269	113	7	0	526346	0	31
270	113	7	1	526338	0	31
271	113	7	2	526320	0	31
272	113	8	0	526346	0	31
273	113	8	1	526354	0	31
274	113	8	2	526320	0	31
275	113	9	0	526346	0	31
276	113	9	1	526354	0	31
277	113	9	2	526320	0	31
278	114	1	0	526251	0	31
279	114	1	1	526177	0	31
280	114	2	0	526251	0	31
281	114	2	1	526178	0	31
282	114	2	2	526190	0	31
283	114	3	0	526230	0	31
284	114	3	1	526280	0	31
285	114	3	2	526282	0	31
286	114	4	0	526239	0	31
287	114	4	1	526291	0	31
288	114	5	0	526179	0	31
289	114	5	1	526425	0	31
290	114	6	0	526180	0	31
291	114	7	0	34079051	0	31
292	114	8	0	34080205	0	31
293	114	8	1	34080206	0	31
294	114	9	0	34081497	0	31
295	114	9	1	34081509	0	31
296	115	1	0	526347	0	31
297	115	1	1	526339	0	31
298	115	1	2	526321	0	31
299	115	2	0	526347	0	31
300	115	2	1	526339	0	31
301	115	2	2	526321	0	31
302	115	3	0	526347	0	31
303	115	3	1	526355	0	31
304	115	3	2	526321	0	31
305	115	4	0	526347	0	31
306	115	4	1	526355	0	31
307	115	4	2	526321	0	31
308	115	5	0	526347	0	31
309	115	5	1	526339	0	31
310	115	5	2	526321	0	31
311	115	6	0	526347	0	31
312	115	6	1	526339	0	31
313	115	6	2	526321	0	31
314	115	7	0	526347	0	31
315	115	7	1	526339	0	31
316	115	7	2	526321	0	31
317	115	8	0	526347	0	31
318	115	8	1	526355	0	31
319	115	8	2	526321	0	31
320	115	9	0	526347	0	31
321	115	9	1	526355	0	31
322	115	9	2	526321	0	31
323	116	1	0	526181	0	31
324	116	2	0	526182	0	31
325	116	3	0	526232	0	31
326	116	3	1	526275	0	31
327	116	4	0	526240	0	31
328	116	4	1	526313	0	31
329	116	5	0	526183	0	31
330	116	6	0	526184	0	31
331	116	7	0	34079050	0	31
332	116	7	1	34079049	0	31
333	116	8	0	34080207	0	31
334	116	8	1	34080208	0	31
335	116	9	0	34081499	0	31
336	116	9	1	34081511	0	31
337	117	1	0	526348	0	31
338	117	1	1	526340	0	31
339	117	1	2	526322	0	31
340	117	2	0	526348	0	31
341	117	2	1	526340	0	31
342	117	2	2	526322	0	31
343	117	3	0	526348	0	31
344	117	3	1	526356	0	31
345	117	3	2	526322	0	31
346	117	4	0	526348	0	31
347	117	4	1	526356	0	31
348	117	4	2	526322	0	31
349	117	5	0	526348	0	31
350	117	5	1	526340	0	31
351	117	5	2	526322	0	31
352	117	6	0	526348	0	31
353	117	6	1	526340	0	31
354	117	6	2	526322	0	31
355	117	7	0	526348	0	31
356	117	7	1	526340	0	31
357	117	7	2	526322	0	31
358	117	8	0	526348	0	31
359	117	8	1	526356	0	31
360	117	8	2	526322	0	31
361	117	9	0	526348	0	31
362	117	9	1	526356	0	31
363	117	9	2	526322	0	31
364	118	1	0	526168	0	31
365	118	2	0	526169	0	31
366	118	3	0	526231	0	31
367	118	4	0	526241	0	31
368	118	5	0	526170	0	31
369	118	6	0	526171	0	31
370	118	7	0	34079052	0	31
371	118	8	0	34080209	0	31
372	118	9	0	34081501	0	31
373	119	1	0	526390	0	31
374	119	1	1	526387	0	31
375	119	2	0	526390	0	31
376	119	2	1	526387	0	31
377	119	3	0	526390	0	31
378	119	3	1	526384	0	31
379	119	4	0	526390	0	31
380	119	4	1	526384	0	31
381	119	5	0	526390	0	31
382	119	5	1	526387	0	31
383	119	6	0	526390	0	31
384	119	6	1	526387	0	31
385	119	7	0	526390	0	31
386	119	7	1	526387	0	31
387	119	8	0	526390	0	31
388	119	8	1	526384	0	31
389	119	9	0	526390	0	31
390	119	9	1	526384	0	31
391	120	1	0	526185	0	31
392	120	1	1	526263	0	31
393	120	1	2	526268	0	31
394	120	1	3	526265	0	31
395	120	2	0	526186	0	31
396	120	2	1	526259	0	31
397	120	2	2	526260	0	31
398	120	3	0	526233	0	31
399	120	3	1	526274	0	31
400	120	4	0	526242	0	31
401	120	5	0	526270	0	31
402	120	5	1	526187	0	31
403	120	6	0	526188	0	31
404	120	7	0	34079054	0	31
405	120	7	1	34079055	0	31
406	120	8	0	34080210	0	31
407	120	9	0	34081503	0	31
408	120	9	1	34081514	0	31
409	121	1	0	526391	0	31
410	121	1	1	526388	0	31
411	121	1	2	526350	0	31
412	121	1	3	526342	0	31
413	121	1	4	526324	0	31
414	121	2	0	526391	0	31
415	121	2	1	526388	0	31
416	121	2	2	526350	0	31
417	121	2	3	526342	0	31
418	121	2	4	526324	0	31
419	121	3	0	526391	0	31
420	121	3	1	526385	0	31
421	121	3	2	526350	0	31
422	121	3	3	526358	0	31
423	121	3	4	526324	0	31
424	121	4	0	526391	0	31
425	121	4	1	526385	0	31
426	121	4	2	526350	0	31
427	121	4	3	526358	0	31
428	121	4	4	526324	0	31
429	121	5	0	526391	0	31
430	121	5	1	526388	0	31
431	121	5	2	526350	0	31
432	121	5	3	526342	0	31
433	121	5	4	526324	0	31
434	121	6	0	526391	0	31
435	121	6	1	526388	0	31
436	121	6	2	526350	0	31
437	121	6	3	526342	0	31
438	121	6	4	526324	0	31
439	121	7	0	526391	0	31
440	121	7	1	526388	0	31
441	121	7	2	526350	0	31
442	121	7	3	526342	0	31
443	121	7	4	526324	0	31
444	121	8	0	526391	0	31
445	121	8	1	526385	0	31
446	121	8	2	526350	0	31
447	121	8	3	526358	0	31
448	121	8	4	526324	0	31
449	121	9	0	526391	0	31
450	121	9	1	526385	0	31
451	121	9	2	526350	0	31
452	121	9	3	526358	0	31
453	121	9	4	526324	0	31
454	122	1	0	526266	0	31
455	122	1	1	526267	0	31
456	122	2	0	526253	0	31
457	122	2	1	526261	0	31
458	122	3	0	526272	0	31
459	122	3	1	526273	0	31
460	122	4	0	526315	0	31
461	122	5	0	526271	0	31
462	122	6	0	526310	0	31
463	122	6	1	526311	0	31
464	122	6	2	526312	0	31
465	122	7	0	34079057	0	31
466	122	7	1	34079058	0	31
467	122	8	0	34080219	0	31
468	122	9	0	34081517	0	31
469	122	9	1	34081516	0	31
470	123	1	0	526392	0	31
471	123	1	1	526389	0	31
472	123	1	2	526351	0	31
473	123	1	3	526343	0	31
474	123	1	4	526325	0	31
475	123	2	0	526392	0	31
476	123	2	1	526389	0	31
477	123	2	2	526351	0	31
478	123	2	3	526343	0	31
479	123	2	4	526325	0	31
480	123	3	0	526392	0	31
481	123	3	1	526386	0	31
482	123	3	2	526351	0	31
483	123	3	3	526359	0	31
484	123	3	4	526325	0	31
485	123	4	0	526392	0	31
486	123	4	1	526386	0	31
487	123	4	2	526351	0	31
488	123	4	3	526359	0	31
489	123	4	4	526325	0	31
490	123	5	0	526392	0	31
491	123	5	1	526389	0	31
492	123	5	2	526351	0	31
493	123	5	3	526343	0	31
494	123	5	4	526325	0	31
495	123	6	0	526392	0	31
496	123	6	1	526389	0	31
497	123	6	2	526351	0	31
498	123	6	3	526343	0	31
499	123	6	4	526325	0	31
500	123	7	0	526392	0	31
501	123	7	1	526389	0	31
502	123	7	2	526351	0	31
503	123	7	3	526343	0	31
504	123	7	4	526325	0	31
505	123	8	0	526392	0	31
506	123	8	1	526386	0	31
507	123	8	2	526351	0	31
508	123	8	3	526359	0	31
509	123	8	4	526325	0	31
510	123	9	0	526392	0	31
511	123	9	1	526386	0	31
512	123	9	2	526351	0	31
513	123	9	3	526359	0	31
514	123	9	4	526325	0	31
515	124	0	0	528127	0	0
516	125	0	0	526438	1365	9
517	126	0	0	526855	1424	0
518	127	0	0	3188	0	0
519	127	0	1	3189	0	0
520	127	0	2	3190	0	0
521	127	0	3	3195	0	0
522	127	0	4	3196	0	0
523	127	0	5	3197	0	0
524	128	0	0	3199	0	0
525	128	0	1	3200	0	0
526	128	0	2	3201	0	0
527	128	0	3	3202	0	0
528	128	0	4	3203	0	0
529	129	0	0	3204	0	0
530	129	0	1	3205	0	0
531	129	0	2	3206	0	0
532	129	0	3	3207	0	0
533	129	0	4	3208	0	0
534	129	0	5	3209	0	0
535	130	0	0	525043	257	0
536	131	0	0	525043	258	0
537	132	0	0	525043	259	0
538	133	0	0	525043	260	0
539	134	0	0	525043	261	0
540	135	0	0	3279	0	0
541	135	0	1	3280	0	0
542	135	0	2	3281	0	0
543	136	0	0	527567	0	0
544	136	0	1	527568	0	0
545	136	0	2	527569	0	0
546	137	0	0	527844	395	0
547	138	0	0	528123	1	0
548	139	0	0	528124	1	0
549	140	0	0	528367	1	0
550	141	0	0	527137	50	0
551	142	0	0	33558648	2110	0
552	143	0	0	33209	2111	0
553	144	0	0	33554588	0	0
554	145	0	0	34247	2121	0
555	146	0	0	34240	2123	0
556	147	0	0	33952	2124	0
557	148	0	0	34242	2126	0
558	149	0	0	34243	2127	0
559	150	0	0	34240	2128	0
560	151	0	0	34236	2116	0
561	152	0	0	34434	2135	0
562	153	0	0	33255	2136	0
563	154	0	0	33981	2138	0
564	155	0	0	526436	1363	0
565	156	0	0	524752	0	12
566	157	0	0	525232	0	9
567	158	0	0	526625	0	10
568	159	0	0	525559	50	0
569	160	0	0	525227	3	0
570	161	0	0	526606	3	0
571	162	0	0	527463	5	0
572	163	0	0	526437	1364	0
573	164	0	0	525205	0	1
574	165	0	0	527536	133	0
575	166	0	0	526438	1365	0
576	167	0	0	525201	0	0
577	168	0	0	527131	800000	0
578	169	0	0	527132	5000	0
579	170	0	0	527733	0	0
580	171	0	0	526482	0	1
581	172	0	0	527730	0	15
582	173	0	0	524938	10	0
583	174	0	0	525227	10	0
584	175	0	0	524784	1231	0
585	176	1	0	524702	0	17
586	176	1	1	524716	0	17
587	176	2	0	524702	0	17
588	176	2	1	524716	0	17
589	176	3	0	524702	0	17
590	176	3	1	524718	0	17
591	176	4	0	524702	0	17
592	176	4	1	524718	0	17
593	176	5	0	524702	0	17
594	176	5	1	524716	0	17
595	176	6	0	524702	0	17
596	176	6	1	524716	0	17
597	176	7	0	524702	0	17
598	176	7	1	524716	0	17
599	176	8	0	524702	0	17
600	176	8	1	524718	0	17
601	176	9	0	524702	0	17
602	176	9	1	524718	0	17
603	177	1	0	524703	0	17
604	177	1	1	524717	0	17
605	177	2	0	524703	0	17
606	177	2	1	524717	0	17
607	177	3	0	524703	0	17
608	177	3	1	524719	0	17
609	177	4	0	524703	0	17
610	177	4	1	524719	0	17
611	177	5	0	524703	0	17
612	177	5	1	524717	0	17
613	177	6	0	524703	0	17
614	177	6	1	524717	0	17
615	177	7	0	524703	0	17
616	177	7	1	524717	0	17
617	177	8	0	524703	0	17
618	177	8	1	524719	0	17
619	177	9	0	524703	0	17
620	177	9	1	524719	0	17
621	178	1	0	524704	0	17
622	178	1	1	524714	0	17
623	178	2	0	524704	0	17
624	178	2	1	524714	0	17
625	178	3	0	524704	0	17
626	178	3	1	524715	0	17
627	178	4	0	524704	0	17
628	178	4	1	524715	0	17
629	178	5	0	524704	0	17
630	178	5	1	524714	0	17
631	178	6	0	524704	0	17
632	178	6	1	524714	0	17
633	178	7	0	524704	0	17
634	178	7	1	524714	0	17
635	178	8	0	524704	0	17
636	178	8	1	524715	0	17
637	178	9	0	524704	0	17
638	178	9	1	524715	0	17
639	179	0	0	525202	0	0
640	180	0	0	524889	1215	0
641	181	0	0	524951	1292	0
642	182	0	0	526606	5	0
643	183	0	0	525233	1288	0
644	184	0	0	526641	5	0
645	185	0	0	527135	100000	0
646	186	1	0	568034	536871103	31
647	186	2	0	568038	536871103	31
648	186	3	0	568039	536871103	31
649	186	4	0	568037	536871103	31
650	186	5	0	568035	536871103	31
651	186	6	0	568036	536871103	31
652	186	7	0	34120049	536871103	31
653	186	8	0	34121019	536871103	31
654	186	9	0	34122334	536871103	31
655	187	1	0	568040	536871103	31
656	187	2	0	568044	536871103	31
657	187	3	0	568045	536871103	31
658	187	4	0	568043	536871103	31
659	187	5	0	568041	536871103	31
660	187	6	0	568042	536871103	31
661	187	7	0	34120050	536871103	31
662	187	8	0	34121020	536871103	31
663	187	9	0	34122335	536871103	31
664	188	1	0	568046	536871103	31
665	188	2	0	568050	536871103	31
666	188	3	0	568051	536871103	31
667	188	4	0	568049	536871103	31
668	188	5	0	568047	536871103	31
669	188	6	0	568048	536871103	31
670	188	7	0	34120051	536871103	31
671	188	8	0	34121021	536871103	31
672	188	9	0	34122336	536871103	31
673	189	1	0	568052	536871092	31
674	189	2	0	568056	536871092	31
675	189	3	0	568057	536871092	31
676	189	4	0	568055	536871092	31
677	189	5	0	568053	536871092	31
678	189	6	0	568054	536871092	31
679	189	7	0	34120048	536871092	31
680	189	8	0	34121022	536871092	31
681	189	9	0	34122337	536871092	31
682	190	1	0	565346	536871114	31
683	190	1	1	565331	536871114	31
684	190	2	0	565316	536871114	31
685	190	2	1	565301	536871114	31
686	190	3	0	565271	536871114	31
687	190	4	0	565286	536871114	31
688	190	5	0	565316	536871114	31
689	190	5	1	565286	536871114	31
690	190	6	0	565301	536871114	31
691	190	6	1	565271	536871114	31
692	190	7	0	34120030	536871114	31
693	190	8	0	565271	536871114	31
694	190	8	1	565286	536871114	31
695	190	9	0	565271	536871114	31
696	191	0	0	578	1108	0
697	192	1	0	565342	536876234	31
698	192	1	1	565327	536876234	31
699	192	2	0	565312	536876234	31
700	192	2	1	565297	536876234	31
701	192	3	0	565267	536876234	31
702	192	4	0	565282	536876234	31
703	192	5	0	565312	536876234	31
704	192	5	1	565282	536876234	31
705	192	6	0	565297	536876234	31
706	192	6	1	565267	536876234	31
707	192	7	0	34120026	536876234	31
708	192	8	0	565267	536876234	31
709	192	8	1	565282	536876234	31
710	192	9	0	565267	536876234	31
711	193	1	0	565357	536875455	31
712	193	2	0	565387	536875455	31
713	193	3	0	565387	536875455	31
714	193	4	0	565372	536875455	31
715	193	5	0	565357	536875455	31
716	193	6	0	565372	536875455	31
717	193	7	0	565357	536875455	31
718	193	8	0	565372	536875455	31
719	193	9	0	565387	536875455	31
720	194	1	0	565402	536878527	31
721	194	2	0	565432	536878527	31
722	194	3	0	565432	536878527	31
723	194	4	0	565417	536878527	31
724	194	5	0	565402	536878527	31
725	194	6	0	565417	536878527	31
726	194	7	0	565402	536878527	31
727	194	8	0	565417	536878527	31
728	194	9	0	565432	536878527	31
729	195	1	0	565447	536875455	31
730	195	2	0	565477	536875455	31
731	195	3	0	565477	536875455	31
732	195	4	0	565462	536875455	31
733	195	5	0	565447	536875455	31
734	195	6	0	565462	536875455	31
735	195	7	0	565447	536875455	31
736	195	8	0	565462	536875455	31
737	195	9	0	565477	536875455	31
738	196	1	0	565492	536876212	31
739	196	2	0	565522	536876212	31
740	196	3	0	565522	536876212	31
741	196	4	0	565507	536876212	31
742	196	5	0	565492	536876212	31
743	196	6	0	565507	536876212	31
744	196	7	0	565492	536876212	31
745	196	8	0	565507	536876212	31
746	196	9	0	565522	536876212	31
747	197	1	0	565340	536876049	31
748	197	1	1	565325	536876049	31
749	197	2	0	565310	536876049	31
750	197	2	1	565295	536876049	31
751	197	3	0	565265	536876049	31
752	197	4	0	565280	536876049	31
753	197	5	0	565310	536876049	31
754	197	5	1	565280	536876049	31
755	197	6	0	565295	536876049	31
756	197	6	1	565265	536876049	31
757	197	7	0	34120024	536876049	31
758	197	8	0	565265	536876049	31
759	197	8	1	565280	536876049	31
760	197	9	0	565265	536876049	31
761	198	1	0	565355	536875537	31
762	198	2	0	565385	536875537	31
763	198	3	0	565385	536875537	31
764	198	4	0	565370	536875537	31
765	198	5	0	565355	536875537	31
766	198	6	0	565370	536875537	31
767	198	7	0	565355	536875537	31
768	198	8	0	565370	536875537	31
769	198	9	0	565385	536875537	31
770	199	1	0	565400	536876306	31
771	199	2	0	565430	536876306	31
772	199	3	0	565430	536876306	31
773	199	4	0	565415	536876306	31
774	199	5	0	565400	536876306	31
775	199	6	0	565415	536876306	31
776	199	7	0	565400	536876306	31
777	199	8	0	565415	536876306	31
778	199	9	0	565430	536876306	31
779	200	1	0	565445	536875804	31
780	200	2	0	565475	536875804	31
781	200	3	0	565475	536875804	31
782	200	4	0	565460	536875804	31
783	200	5	0	565445	536875804	31
784	200	6	0	565460	536875804	31
785	200	7	0	565445	536875804	31
786	200	8	0	565460	536875804	31
787	200	9	0	565475	536875804	31
788	201	1	0	565490	536876308	31
789	201	2	0	565520	536876308	31
790	201	3	0	565520	536876308	31
791	201	4	0	565505	536876308	31
792	201	5	0	565490	536876308	31
793	201	6	0	565505	536876308	31
794	201	7	0	565490	536876308	31
795	201	8	0	565505	536876308	31
796	201	9	0	565520	536876308	31
797	202	1	0	589937	268435615	31
798	202	2	0	589967	268435615	31
799	202	3	0	589968	268435615	31
800	202	4	0	589953	268435615	31
801	202	5	0	589938	268435615	31
802	202	6	0	589952	268435615	31
803	202	7	0	34144629	268435615	31
804	202	8	0	34145599	268435615	31
805	202	9	0	34146914	268435615	31
806	203	1	0	589982	268435615	31
807	203	2	0	590012	268435615	31
808	203	3	0	590013	268435615	31
809	203	4	0	589998	268435615	31
810	203	5	0	589983	268435615	31
811	203	6	0	589997	268435615	31
812	203	7	0	34144630	268435615	31
813	203	8	0	34145600	268435615	31
814	203	9	0	34146915	268435615	31
815	204	1	0	590027	268435615	31
816	204	2	0	590057	268435615	31
817	204	3	0	590058	268435615	31
818	204	4	0	590043	268435615	31
819	204	5	0	590028	268435615	31
820	204	6	0	590042	268435615	31
821	204	7	0	34144631	268435615	31
822	204	8	0	34145601	268435615	31
823	204	9	0	34146916	268435615	31
824	205	1	0	590072	536871092	31
825	205	1	1	590072	536871093	31
826	205	2	0	590102	536871092	31
827	205	2	1	590102	536871093	31
828	205	3	0	590103	536871092	31
829	205	3	1	590103	536871093	31
830	205	4	0	590088	536871092	31
831	205	4	1	590088	536871093	31
832	205	5	0	590073	536871092	31
833	205	5	1	590073	536871093	31
834	205	6	0	590087	536871092	31
835	205	6	1	590087	536871093	31
836	205	7	0	34144628	536871092	31
837	205	7	1	34144628	536871093	31
838	205	8	0	34145602	536871092	31
839	205	8	1	34145602	536871093	31
840	205	9	0	34146917	536871092	31
841	205	9	1	34146917	536871093	31
842	206	0	0	945	1288	0
843	207	0	0	4	50	0
844	208	0	0	12	50	0
845	209	1	0	589923	536871076	31
846	209	1	1	589923	536871077	31
847	209	2	0	589893	536871076	31
848	209	2	1	589893	536871077	31
849	209	2	2	589878	536871076	31
850	209	2	3	589878	536871077	31
851	209	3	0	589848	536871076	31
852	209	3	1	589848	536871077	31
853	209	4	0	589863	536871076	31
854	209	4	1	589863	536871077	31
855	209	4	2	589848	536871076	31
856	209	4	3	589848	536871077	31
857	209	5	0	589893	536871076	31
858	209	5	1	589893	536871077	31
859	209	6	0	589878	536871076	31
860	209	6	1	589878	536871077	31
861	209	6	2	589893	536871076	31
862	209	6	3	589893	536871077	31
863	209	7	0	34144607	536871076	31
864	209	7	1	34144607	536871077	31
865	209	8	0	589863	536871076	31
866	209	8	1	589863	536871077	31
867	209	8	2	589848	536871076	31
868	209	8	3	589848	536871077	31
869	209	9	0	589848	536871076	31
870	209	9	1	589848	536871077	31
871	210	1	0	589908	536871076	31
872	210	1	1	589908	536871077	31
873	210	2	0	589893	536871076	31
874	210	2	1	589893	536871077	31
875	210	2	2	589878	536871076	31
876	210	2	3	589878	536871077	31
877	210	3	0	589848	536871076	31
878	210	3	1	589848	536871077	31
879	210	4	0	589863	536871076	31
880	210	4	1	589863	536871077	31
881	210	4	2	589848	536871076	31
882	210	4	3	589848	536871077	31
883	210	5	0	589863	536871076	31
884	210	5	1	589863	536871077	31
885	210	6	0	589848	536871076	31
886	210	6	1	589848	536871077	31
887	210	6	2	589863	536871076	31
888	210	6	3	589863	536871077	31
889	210	7	0	34144607	536871076	31
890	210	7	1	34144607	536871077	31
891	210	8	0	589863	536871076	31
892	210	8	1	589863	536871077	31
893	210	8	2	589848	536871076	31
894	210	8	3	589848	536871077	31
895	210	9	0	589848	536871076	31
896	210	9	1	589848	536871077	31
897	211	0	0	524866	1108	9
898	212	0	0	524784	1231	9
899	213	0	0	524889	1215	9
900	214	1	0	526144	0	31
901	214	2	0	526150	0	31
902	214	3	0	526199	0	31
903	214	4	0	526235	0	31
904	214	5	0	526145	0	31
905	214	6	0	526151	0	31
906	214	7	0	34079039	0	31
907	214	8	0	34080197	0	31
908	214	9	0	34081482	0	31
909	215	1	0	526173	0	31
910	215	2	0	526174	0	31
911	215	3	0	526229	0	31
912	215	4	0	526238	0	31
913	215	5	0	526175	0	31
914	215	6	0	526176	0	31
915	215	7	0	34079047	0	31
916	215	8	0	34080203	0	31
917	215	9	0	34081495	0	31
918	216	1	0	526256	0	31
919	216	2	0	526378	0	31
920	216	3	0	526281	0	31
921	216	4	0	526314	0	31
922	216	5	0	526297	0	31
923	216	6	0	526308	0	31
924	216	7	0	34079174	0	31
925	216	8	0	34080211	0	31
926	216	9	0	34081513	0	31
927	217	1	0	526599	0	31
928	217	2	0	526600	0	31
929	217	3	0	526603	0	31
930	217	4	0	526604	0	31
931	217	5	0	526601	0	31
932	217	6	0	526602	0	31
933	217	7	0	34079056	0	31
934	217	8	0	34080212	0	31
935	217	9	0	34081505	0	31
936	218	1	0	34080013	0	31
937	218	2	0	34080014	0	31
938	218	3	0	34080017	0	31
939	218	4	0	34080018	0	31
940	218	5	0	34080015	0	31
941	218	6	0	34080012	0	31
942	218	7	0	34080016	0	31
943	218	8	0	34080213	0	31
944	218	9	0	34081507	0	31
945	219	1	0	527549	0	31
946	219	2	0	527552	0	31
947	219	3	0	527555	0	31
948	219	4	0	527558	0	31
949	219	5	0	527561	0	31
950	219	6	0	527564	0	31
951	219	7	0	34079059	0	31
952	219	8	0	34080218	0	31
953	219	9	0	34081528	0	31
954	220	0	0	33556252	0	31
955	221	0	0	33556253	0	31
956	222	0	0	33556254	0	31
957	223	0	0	33556255	0	31
958	224	0	0	33556256	0	31
959	225	0	0	33556257	0	31
960	226	0	0	33556258	0	31
961	227	0	0	33556259	0	31
962	228	0	0	33556260	0	31
963	229	0	0	33556261	0	31
964	230	0	0	34080659	0	31
965	231	0	0	34081105	2190	31
966	232	0	0	34081191	27	30
967	233	0	0	34081192	27	30
968	234	0	0	34081193	27	30
969	235	0	0	34081194	27	30
970	236	0	0	34081195	27	30
971	237	0	0	34081196	27	30
972	238	0	0	34081197	27	30
973	239	0	0	34081198	27	30
974	240	0	0	34081559	27	30
